29.03 0.17 3.79 22.88 0.16 4.41 11.22 0.15 4.09 23.8 0.29 3.74 16.02 0.16 3.25
10.03 0.28 2.68 18.71 0.24 3.97 28.19 0.19 2.21 19.28 0.14 2.92 12.48 0.29 2.53
26.97 0.21 4.04 20.26 0.21 2.98 12.3 0.25 2.02 11.13 0.12 3.6 18.39 0.14 2.86
12.5 0.12 4.55 11.32 0.16 2.86 16.27 0.12 2.17 18.7 0.12 2.18 27.38 0.19 3.9
14.42 0.19 3.16 15.94 0.23 3.36 26.94 0.21 3.38 18.3 0.17 3.35 13.38 0.29 4.63
13.15 0.28 3.25 12.95 0.1 2.49 10.24 0.2 2.77 24.93 0.28 3.14 20.05 0.28 4.45
